c pcminimize - minimizing a CNF with respect to propagation completeness by iterative removing of absorbed clauses.
c Petr Kucera, 2016-2021
c Version 2.7, revision 59, git hash 4910a71, date 2024-07-16 20:17:42 +0200
p cnf 351 447
251 -252 0
202 -252 0
-224 -253 0
-202 -253 0
252 253 -254 0
254 -255 0
255 -257 0
256 -257 0
207 -258 0
202 -259 0
251 -259 0
259 -260 0
117 -260 0
254 -261 0
-117 -261 0
262 -263 0
-207 -264 0
266 -267 0
47 -267 0
-26 -268 0
-47 -268 0
269 -270 0
228 -270 0
266 -271 0
271 -272 0
-228 -272 0
274 -275 0
55 -275 0
-55 -276 0
-243 -278 0
278 -280 0
279 -280 0
280 -282 0
281 -282 0
282 -283 0
221 -283 0
-93 -284 0
-121 -284 0
-171 -284 0
243 -284 0
284 -285 0
-221 -285 0
283 285 -286 0
79 -287 0
114 -287 0
287 -289 0
288 -289 0
289 -290 0
141 -290 0
114 -291 0
288 -291 0
291 -292 0
79 -292 0
206 -294 0
293 -294 0
294 -295 0
-79 -295 0
292 295 -296 0
296 -297 0
-141 -297 0
286 -301 0
298 -301 0
299 -301 0
300 -301 0
76 -302 0
12 -303 0
304 -305 0
-12 -305 0
-243 -307 0
307 -308 0
279 -308 0
308 -309 0
281 -309 0
309 -310 0
221 -310 0
284 -312 0
311 -312 0
312 -313 0
-221 -313 0
287 -315 0
141 -315 0
114 -316 0
79 -316 0
293 -317 0
-79 -317 0
316 317 -318 0
318 -319 0
-141 -319 0
315 319 -320 0
306 -321 0
314 -321 0
320 -321 0
206 -321 0
322 -323 0
-76 -324 0
327 -334 0
328 -334 0
329 -334 0
330 -334 0
331 -334 0
332 -334 0
333 -334 0
265 -335 0
273 -335 0
277 -335 0
325 -335 0
334 -335 0
-2 0
-3 0
4 0
5 0
6 0
7 0
8 0
9 0
10 0
-11 0
-13 0
-14 0
15 0
-16 0
-17 0
-18 0
-19 0
20 0
-21 0
22 0
23 0
-24 0
25 0
-27 0
28 0
29 0
-30 0
-31 0
-32 0
33 0
34 0
35 0
-36 0
-37 0
38 0
-39 0
-40 0
-41 0
42 0
-43 0
-44 0
45 0
46 0
48 0
-49 0
51 0
52 0
53 0
-54 0
-58 0
59 0
-60 0
-61 0
-62 0
-63 0
64 0
-65 0
66 0
-67 0
-68 0
-69 0
-70 0
71 0
72 0
-73 0
74 0
-77 0
-78 0
-80 0
-81 0
-82 0
83 0
-84 0
-85 0
-86 0
87 0
88 0
-89 0
-90 0
91 0
-92 0
-94 0
95 0
-96 0
98 0
-99 0
100 0
-101 0
102 0
103 0
-104 0
-105 0
106 0
-107 0
108 0
-109 0
-110 0
-111 0
112 0
-113 0
-115 0
116 0
118 0
-119 0
-120 0
-122 0
123 0
124 0
-125 0
-126 0
-127 0
128 0
129 0
130 0
132 0
133 0
-134 0
135 0
-136 0
137 0
138 0
-139 0
140 0
-143 0
-144 0
145 0
146 0
-147 0
148 0
149 0
150 0
151 0
-152 0
-153 0
-154 0
155 0
157 0
-158 0
159 0
-160 0
161 0
162 0
-163 0
164 0
-165 0
-166 0
167 0
168 0
169 0
170 0
-172 0
-174 0
-175 0
-176 0
177 0
-178 0
179 0
-180 0
181 0
-182 0
-183 0
-184 0
185 0
186 0
187 0
-188 0
-189 0
-190 0
191 0
-192 0
-193 0
194 0
195 0
-196 0
-197 0
198 0
-199 0
200 0
201 0
-203 0
204 0
-205 0
-208 0
-209 0
210 0
211 0
-213 0
214 0
215 0
216 0
217 0
218 0
-219 0
220 0
-222 0
223 0
225 0
226 0
227 0
-229 0
-230 0
231 0
-232 0
233 0
234 0
235 0
-236 0
-238 0
-239 0
-240 0
241 0
-242 0
244 0
-245 0
246 0
-247 0
248 0
249 0
250 0
-346 347 0
-227 348 0
-337 339 0
-350 351 0
-343 344 0
-326 335 0
-344 345 0
57 322 0
-289 290 0
-313 314 0
-312 313 0
-309 310 0
-308 309 0
-319 320 0
-306 321 0
-304 305 0
-237 304 0
-303 306 0
12 300 305 0
-117 260 0
237 299 303 304 0
-297 298 0
-295 296 0
-294 295 0
-293 294 317 0
-300 301 0
-291 292 0
224 251 253 0
-121 279 0
-288 289 291 0
-286 301 0
-296 297 0
221 285 313 0
-310 314 0
113 346 0
-206 288 294 321 0
-284 285 312 0
-79 287 292 316 0
171 284 0
-283 286 0
-47 267 271 0
-301 302 0
-254 255 261 0
-282 283 0
55 276 0
-26 266 0
-262 263 0
121 279 284 0
-114 287 291 293 316 0
206 288 0
-287 289 315 0
-260 262 0
97 274 0
-266 267 271 0
50 299 307 311 0
-279 280 308 0
69 336 0
-224 251 0
-314 321 0
-315 320 0
-305 306 0
79 295 317 0
-251 252 259 0
-202 252 259 0
-311 312 0
-348 349 0
141 297 319 0
-299 301 0
-281 282 309 0
-253 254 0
-243 284 0
-259 260 0
202 253 0
-141 290 315 0
-255 257 0
-285 286 0
-274 275 0
114 293 0
-256 257 0
-228 270 0
-267 269 0
-268 269 0
-271 272 0
-316 318 0
117 255 261 0
-221 283 310 0
-280 282 0
-55 275 0
228 272 0
-93 281 0
-339 340 0
-50 311 0
-263 264 0
-307 308 0
-278 280 0
-298 301 0
-320 321 0
-252 254 0
-186 337 0
93 281 284 0
-341 342 0
47 268 0
17 341 0
-317 318 0
-257 258 0
-322 323 0
-292 296 0
26 266 268 0
-349 350 0
-1 256 263 0
-321 323 0
1 256 0
-290 298 0
-269 270 0
-261 262 0
-318 319 0
-12 300 303 0
-323 324 0
-100 343 0
101 338 0
197 326 0
